letting numberLocations be  36
letting costs be function (
(0,0) --> 0,
(0,1) --> 21,
(0,2) --> 58,
(0,3) --> 17,
(0,4) --> 33,
(0,5) --> 49,
(0,6) --> 70,
(0,7) --> 21,
(0,8) --> 55,
(0,9) --> 55,
(0,10) --> 48,
(0,11) --> 70,
(0,12) --> 36,
(0,13) --> 34,
(0,14) --> 42,
(0,15) --> 3,
(0,16) --> 12,
(0,17) --> 37,
(0,18) --> 53,
(0,19) --> 60,
(0,20) --> 56,
(0,21) --> 6,
(0,22) --> 26,
(0,23) --> 44,
(0,24) --> 47,
(0,25) --> 42,
(0,26) --> 35,
(0,27) --> 62,
(0,28) --> 34,
(0,29) --> 29,
(0,30) --> 29,
(0,31) --> 37,
(0,32) --> 30,
(0,33) --> 46,
(0,34) --> 14,
(0,35) --> 47,
(0,36) --> 17,
(1,0) --> 21,
(1,1) --> 0,
(1,2) --> 37,
(1,3) --> 19,
(1,4) --> 45,
(1,5) --> 41,
(1,6) --> 54,
(1,7) --> 30,
(1,8) --> 47,
(1,9) --> 42,
(1,10) --> 29,
(1,11) --> 56,
(1,12) --> 16,
(1,13) --> 26,
(1,14) --> 22,
(1,15) --> 23,
(1,16) --> 17,
(1,17) --> 18,
(1,18) --> 67,
(1,19) --> 39,
(1,20) --> 37,
(1,21) --> 16,
(1,22) --> 22,
(1,23) --> 27,
(1,24) --> 35,
(1,25) --> 47,
(1,26) --> 51,
(1,27) --> 52,
(1,28) --> 52,
(1,29) --> 50,
(1,30) --> 43,
(1,31) --> 56,
(1,32) --> 49,
(1,33) --> 45,
(1,34) --> 34,
(1,35) --> 59,
(1,36) --> 38,
(2,0) --> 58,
(2,1) --> 37,
(2,2) --> 0,
(2,3) --> 53,
(2,4) --> 75,
(2,5) --> 47,
(2,6) --> 35,
(2,7) --> 61,
(2,8) --> 57,
(2,9) --> 46,
(2,10) --> 20,
(2,11) --> 48,
(2,12) --> 22,
(2,13) --> 42,
(2,14) --> 24,
(2,15) --> 60,
(2,16) --> 51,
(2,17) --> 27,
(2,18) --> 99,
(2,19) --> 9,
(2,20) --> 20,
(2,21) --> 53,
(2,22) --> 46,
(2,23) --> 29,
(2,24) --> 44,
(2,25) --> 75,
(2,26) --> 86,
(2,27) --> 58,
(2,28) --> 88,
(2,29) --> 87,
(2,30) --> 77,
(2,31) --> 92,
(2,32) --> 86,
(2,33) --> 61,
(2,34) --> 71,
(2,35) --> 91,
(2,36) --> 75,
(3,0) --> 17,
(3,1) --> 19,
(3,2) --> 53,
(3,3) --> 0,
(3,4) --> 51,
(3,5) --> 58,
(3,6) --> 73,
(3,7) --> 37,
(3,8) --> 37,
(3,9) --> 39,
(3,10) --> 48,
(3,11) --> 54,
(3,12) --> 33,
(3,13) --> 43,
(3,14) --> 31,
(3,15) --> 17,
(3,16) --> 25,
(3,17) --> 26,
(3,18) --> 48,
(3,19) --> 52,
(3,20) --> 45,
(3,21) --> 19,
(3,22) --> 36,
(3,23) --> 31,
(3,24) --> 31,
(3,25) --> 29,
(3,26) --> 33,
(3,27) --> 45,
(3,28) --> 36,
(3,29) --> 40,
(3,30) --> 25,
(3,31) --> 40,
(3,32) --> 35,
(3,33) --> 59,
(3,34) --> 22,
(3,35) --> 40,
(3,36) --> 26,
(4,0) --> 33,
(4,1) --> 45,
(4,2) --> 75,
(4,3) --> 51,
(4,4) --> 0,
(4,5) --> 41,
(4,6) --> 70,
(4,7) --> 15,
(4,8) --> 88,
(4,9) --> 86,
(4,10) --> 57,
(4,11) --> 101,
(4,12) --> 55,
(4,13) --> 34,
(4,14) --> 67,
(4,15) --> 34,
(4,16) --> 28,
(4,17) --> 63,
(4,18) --> 78,
(4,19) --> 80,
(4,20) --> 81,
(4,21) --> 32,
(4,22) --> 29,
(4,23) --> 72,
(4,24) --> 79,
(4,25) --> 74,
(4,26) --> 59,
(4,27) --> 95,
(4,28) --> 53,
(4,29) --> 38,
(4,30) --> 57,
(4,31) --> 56,
(4,32) --> 48,
(4,33) --> 27,
(4,34) --> 39,
(4,35) --> 74,
(4,36) --> 38,
(5,0) --> 49,
(5,1) --> 41,
(5,2) --> 47,
(5,3) --> 58,
(5,4) --> 41,
(5,5) --> 0,
(5,6) --> 30,
(5,7) --> 35,
(5,8) --> 86,
(5,9) --> 79,
(5,10) --> 27,
(5,11) --> 88,
(5,12) --> 37,
(5,13) --> 15,
(5,14) --> 53,
(5,15) --> 52,
(5,16) --> 37,
(5,17) --> 51,
(5,18) --> 102,
(5,19) --> 55,
(5,20) --> 62,
(5,21) --> 43,
(5,22) --> 23,
(5,23) --> 60,
(5,24) --> 73,
(5,25) --> 87,
(5,26) --> 84,
(5,27) --> 90,
(5,28) --> 81,
(5,29) --> 71,
(5,30) --> 78,
(5,31) --> 85,
(5,32) --> 77,
(5,33) --> 16,
(5,34) --> 62,
(5,35) --> 96,
(5,36) --> 64,
(6,0) --> 70,
(6,1) --> 54,
(6,2) --> 35,
(6,3) --> 73,
(6,4) --> 70,
(6,5) --> 30,
(6,6) --> 0,
(6,7) --> 62,
(6,8) --> 89,
(6,9) --> 79,
(6,10) --> 25,
(6,11) --> 83,
(6,12) --> 41,
(6,13) --> 38,
(6,14) --> 54,
(6,15) --> 73,
(6,16) --> 59,
(6,17) --> 55,
(6,18) --> 120,
(6,19) --> 44,
(6,20) --> 55,
(6,21) --> 64,
(6,22) --> 47,
(6,23) --> 61,
(6,24) --> 76,
(6,25) --> 100,
(6,26) --> 104,
(6,27) --> 91,
(6,28) --> 103,
(6,29) --> 97,
(6,30) --> 96,
(6,31) --> 107,
(6,32) --> 100,
(6,33) --> 46,
(6,34) --> 84,
(6,35) --> 113,
(6,36) --> 87,
(7,0) --> 21,
(7,1) --> 30,
(7,2) --> 61,
(7,3) --> 37,
(7,4) --> 15,
(7,5) --> 35,
(7,6) --> 62,
(7,7) --> 0,
(7,8) --> 74,
(7,9) --> 72,
(7,10) --> 45,
(7,11) --> 86,
(7,12) --> 41,
(7,13) --> 24,
(7,14) --> 53,
(7,15) --> 23,
(7,16) --> 14,
(7,17) --> 48,
(7,18) --> 71,
(7,19) --> 66,
(7,20) --> 66,
(7,21) --> 18,
(7,22) --> 16,
(7,23) --> 57,
(7,24) --> 64,
(7,25) --> 63,
(7,26) --> 52,
(7,27) --> 81,
(7,28) --> 49,
(7,29) --> 37,
(7,30) --> 49,
(7,31) --> 52,
(7,32) --> 44,
(7,33) --> 26,
(7,34) --> 31,
(7,35) --> 67,
(7,36) --> 32,
(8,0) --> 55,
(8,1) --> 47,
(8,2) --> 57,
(8,3) --> 37,
(8,4) --> 88,
(8,5) --> 86,
(8,6) --> 89,
(8,7) --> 74,
(8,8) --> 0,
(8,9) --> 13,
(8,10) --> 66,
(8,11) --> 25,
(8,12) --> 50,
(8,13) --> 72,
(8,14) --> 35,
(8,15) --> 54,
(8,16) --> 61,
(8,17) --> 35,
(8,18) --> 58,
(8,19) --> 51,
(8,20) --> 38,
(8,21) --> 56,
(8,22) --> 69,
(8,23) --> 29,
(8,24) --> 14,
(8,25) --> 31,
(8,26) --> 55,
(8,27) --> 8,
(8,28) --> 63,
(8,29) --> 73,
(8,30) --> 47,
(8,31) --> 65,
(8,32) --> 64,
(8,33) --> 92,
(8,34) --> 57,
(8,35) --> 50,
(8,36) --> 60,
(9,0) --> 55,
(9,1) --> 42,
(9,2) --> 46,
(9,3) --> 39,
(9,4) --> 86,
(9,5) --> 79,
(9,6) --> 79,
(9,7) --> 72,
(9,8) --> 13,
(9,9) --> 0,
(9,10) --> 56,
(9,11) --> 16,
(9,12) --> 42,
(9,13) --> 66,
(9,14) --> 26,
(9,15) --> 55,
(9,16) --> 58,
(9,17) --> 27,
(9,18) --> 68,
(9,19) --> 39,
(9,20) --> 26,
(9,21) --> 55,
(9,22) --> 64,
(9,23) --> 19,
(9,24) --> 8,
(9,25) --> 41,
(9,26) --> 63,
(9,27) --> 12,
(9,28) --> 69,
(9,29) --> 77,
(9,30) --> 54,
(9,31) --> 72,
(9,32) --> 70,
(9,33) --> 87,
(9,34) --> 60,
(9,35) --> 60,
(9,36) --> 64,
(10,0) --> 48,
(10,1) --> 29,
(10,2) --> 20,
(10,3) --> 48,
(10,4) --> 57,
(10,5) --> 27,
(10,6) --> 25,
(10,7) --> 45,
(10,8) --> 66,
(10,9) --> 56,
(10,10) --> 0,
(10,11) --> 63,
(10,12) --> 16,
(10,13) --> 23,
(10,14) --> 30,
(10,15) --> 50,
(10,16) --> 38,
(10,17) --> 30,
(10,18) --> 96,
(10,19) --> 28,
(10,20) --> 35,
(10,21) --> 41,
(10,22) --> 29,
(10,23) --> 37,
(10,24) --> 52,
(10,25) --> 75,
(10,26) --> 80,
(10,27) --> 68,
(10,28) --> 81,
(10,29) --> 76,
(10,30) --> 72,
(10,31) --> 84,
(10,32) --> 77,
(10,33) --> 41,
(10,34) --> 62,
(10,35) --> 88,
(10,36) --> 65,
(11,0) --> 70,
(11,1) --> 56,
(11,2) --> 48,
(11,3) --> 54,
(11,4) --> 101,
(11,5) --> 88,
(11,6) --> 83,
(11,7) --> 86,
(11,8) --> 25,
(11,9) --> 16,
(11,10) --> 63,
(11,11) --> 0,
(11,12) --> 52,
(11,13) --> 77,
(11,14) --> 35,
(11,15) --> 71,
(11,16) --> 72,
(11,17) --> 39,
(11,18) --> 83,
(11,19) --> 39,
(11,20) --> 28,
(11,21) --> 69,
(11,22) --> 76,
(11,23) --> 29,
(11,24) --> 24,
(11,25) --> 56,
(11,26) --> 79,
(11,27) --> 19,
(11,28) --> 85,
(11,29) --> 93,
(11,30) --> 70,
(11,31) --> 88,
(11,32) --> 86,
(11,33) --> 98,
(11,34) --> 76,
(11,35) --> 75,
(11,36) --> 80,
(12,0) --> 36,
(12,1) --> 16,
(12,2) --> 22,
(12,3) --> 33,
(12,4) --> 55,
(12,5) --> 37,
(12,6) --> 41,
(12,7) --> 41,
(12,8) --> 50,
(12,9) --> 42,
(12,10) --> 16,
(12,11) --> 52,
(12,12) --> 0,
(12,13) --> 26,
(12,14) --> 16,
(12,15) --> 38,
(12,16) --> 30,
(12,17) --> 15,
(12,18) --> 81,
(12,19) --> 26,
(12,20) --> 27,
(12,21) --> 31,
(12,22) --> 27,
(12,23) --> 23,
(12,24) --> 37,
(12,25) --> 59,
(12,26) --> 66,
(12,27) --> 54,
(12,28) --> 67,
(12,29) --> 65,
(12,30) --> 57,
(12,31) --> 71,
(12,32) --> 65,
(12,33) --> 47,
(12,34) --> 49,
(12,35) --> 73,
(12,36) --> 53,
(13,0) --> 34,
(13,1) --> 26,
(13,2) --> 42,
(13,3) --> 43,
(13,4) --> 34,
(13,5) --> 15,
(13,6) --> 38,
(13,7) --> 24,
(13,8) --> 72,
(13,9) --> 66,
(13,10) --> 23,
(13,11) --> 77,
(13,12) --> 26,
(13,13) --> 0,
(13,14) --> 42,
(13,15) --> 37,
(13,16) --> 22,
(13,17) --> 39,
(13,18) --> 87,
(13,19) --> 49,
(13,20) --> 53,
(13,21) --> 28,
(13,22) --> 9,
(13,23) --> 48,
(13,24) --> 60,
(13,25) --> 72,
(13,26) --> 69,
(13,27) --> 77,
(13,28) --> 67,
(13,29) --> 59,
(13,30) --> 63,
(13,31) --> 71,
(13,32) --> 63,
(13,33) --> 21,
(13,34) --> 48,
(13,35) --> 81,
(13,36) --> 50,
(14,0) --> 42,
(14,1) --> 22,
(14,2) --> 24,
(14,3) --> 31,
(14,4) --> 67,
(14,5) --> 53,
(14,6) --> 54,
(14,7) --> 53,
(14,8) --> 35,
(14,9) --> 26,
(14,10) --> 30,
(14,11) --> 35,
(14,12) --> 16,
(14,13) --> 42,
(14,14) --> 0,
(14,15) --> 43,
(14,16) --> 40,
(14,17) --> 5,
(14,18) --> 76,
(14,19) --> 21,
(14,20) --> 15,
(14,21) --> 38,
(14,22) --> 41,
(14,23) --> 7,
(14,24) --> 22,
(14,25) --> 51,
(14,26) --> 64,
(14,27) --> 38,
(14,28) --> 67,
(14,29) --> 70,
(14,30) --> 55,
(14,31) --> 71,
(14,32) --> 66,
(14,33) --> 63,
(14,34) --> 52,
(14,35) --> 68,
(14,36) --> 56,
(15,0) --> 3,
(15,1) --> 23,
(15,2) --> 60,
(15,3) --> 17,
(15,4) --> 34,
(15,5) --> 52,
(15,6) --> 73,
(15,7) --> 23,
(15,8) --> 54,
(15,9) --> 55,
(15,10) --> 50,
(15,11) --> 71,
(15,12) --> 38,
(15,13) --> 37,
(15,14) --> 43,
(15,15) --> 0,
(15,16) --> 15,
(15,17) --> 38,
(15,18) --> 50,
(15,19) --> 62,
(15,20) --> 58,
(15,21) --> 9,
(15,22) --> 29,
(15,23) --> 45,
(15,24) --> 48,
(15,25) --> 40,
(15,26) --> 32,
(15,27) --> 62,
(15,28) --> 31,
(15,29) --> 27,
(15,30) --> 26,
(15,31) --> 34,
(15,32) --> 27,
(15,33) --> 48,
(15,34) --> 12,
(15,35) --> 45,
(15,36) --> 15,
(16,0) --> 12,
(16,1) --> 17,
(16,2) --> 51,
(16,3) --> 25,
(16,4) --> 28,
(16,5) --> 37,
(16,6) --> 59,
(16,7) --> 14,
(16,8) --> 61,
(16,9) --> 58,
(16,10) --> 38,
(16,11) --> 72,
(16,12) --> 30,
(16,13) --> 22,
(16,14) --> 40,
(16,15) --> 15,
(16,16) --> 0,
(16,17) --> 35,
(16,18) --> 65,
(16,19) --> 55,
(16,20) --> 54,
(16,21) --> 6,
(16,22) --> 14,
(16,23) --> 44,
(16,24) --> 51,
(16,25) --> 53,
(16,26) --> 47,
(16,27) --> 67,
(16,28) --> 45,
(16,29) --> 38,
(16,30) --> 41,
(16,31) --> 49,
(16,32) --> 41,
(16,33) --> 34,
(16,34) --> 26,
(16,35) --> 59,
(16,36) --> 29,
(17,0) --> 37,
(17,1) --> 18,
(17,2) --> 27,
(17,3) --> 26,
(17,4) --> 63,
(17,5) --> 51,
(17,6) --> 55,
(17,7) --> 48,
(17,8) --> 35,
(17,9) --> 27,
(17,10) --> 30,
(17,11) --> 39,
(17,12) --> 15,
(17,13) --> 39,
(17,14) --> 5,
(17,15) --> 38,
(17,16) --> 35,
(17,17) --> 0,
(17,18) --> 72,
(17,19) --> 26,
(17,20) --> 20,
(17,21) --> 34,
(17,22) --> 38,
(17,23) --> 9,
(17,24) --> 22,
(17,25) --> 48,
(17,26) --> 59,
(17,27) --> 39,
(17,28) --> 63,
(17,29) --> 64,
(17,30) --> 50,
(17,31) --> 66,
(17,32) --> 61,
(17,33) --> 60,
(17,34) --> 47,
(17,35) --> 64,
(17,36) --> 51,
(18,0) --> 53,
(18,1) --> 67,
(18,2) --> 99,
(18,3) --> 48,
(18,4) --> 78,
(18,5) --> 102,
(18,6) --> 120,
(18,7) --> 71,
(18,8) --> 58,
(18,9) --> 68,
(18,10) --> 96,
(18,11) --> 83,
(18,12) --> 81,
(18,13) --> 87,
(18,14) --> 76,
(18,15) --> 50,
(18,16) --> 65,
(18,17) --> 72,
(18,18) --> 0,
(18,19) --> 97,
(18,20) --> 87,
(18,21) --> 59,
(18,22) --> 79,
(18,23) --> 73,
(18,24) --> 63,
(18,25) --> 27,
(18,26) --> 19,
(18,27) --> 65,
(18,28) --> 25,
(18,29) --> 42,
(18,30) --> 24,
(18,31) --> 23,
(18,32) --> 30,
(18,33) --> 98,
(18,34) --> 40,
(18,35) --> 8,
(18,36) --> 40,
(19,0) --> 60,
(19,1) --> 39,
(19,2) --> 9,
(19,3) --> 52,
(19,4) --> 80,
(19,5) --> 55,
(19,6) --> 44,
(19,7) --> 66,
(19,8) --> 51,
(19,9) --> 39,
(19,10) --> 28,
(19,11) --> 39,
(19,12) --> 26,
(19,13) --> 49,
(19,14) --> 21,
(19,15) --> 62,
(19,16) --> 55,
(19,17) --> 26,
(19,18) --> 97,
(19,19) --> 0,
(19,20) --> 13,
(19,21) --> 56,
(19,22) --> 52,
(19,23) --> 24,
(19,24) --> 38,
(19,25) --> 71,
(19,26) --> 85,
(19,27) --> 51,
(19,28) --> 88,
(19,29) --> 89,
(19,30) --> 76,
(19,31) --> 92,
(19,32) --> 87,
(19,33) --> 69,
(19,34) --> 72,
(19,35) --> 89,
(19,36) --> 76,
(20,0) --> 56,
(20,1) --> 37,
(20,2) --> 20,
(20,3) --> 45,
(20,4) --> 81,
(20,5) --> 62,
(20,6) --> 55,
(20,7) --> 66,
(20,8) --> 38,
(20,9) --> 26,
(20,10) --> 35,
(20,11) --> 28,
(20,12) --> 27,
(20,13) --> 53,
(20,14) --> 15,
(20,15) --> 58,
(20,16) --> 54,
(20,17) --> 20,
(20,18) --> 87,
(20,19) --> 13,
(20,20) --> 0,
(20,21) --> 53,
(20,22) --> 54,
(20,23) --> 14,
(20,24) --> 26,
(20,25) --> 61,
(20,26) --> 77,
(20,27) --> 38,
(20,28) --> 81,
(20,29) --> 84,
(20,30) --> 68,
(20,31) --> 84,
(20,32) --> 80,
(20,33) --> 73,
(20,34) --> 66,
(20,35) --> 79,
(20,36) --> 71,
(21,0) --> 6,
(21,1) --> 16,
(21,2) --> 53,
(21,3) --> 19,
(21,4) --> 32,
(21,5) --> 43,
(21,6) --> 64,
(21,7) --> 18,
(21,8) --> 56,
(21,9) --> 55,
(21,10) --> 41,
(21,11) --> 69,
(21,12) --> 31,
(21,13) --> 28,
(21,14) --> 38,
(21,15) --> 9,
(21,16) --> 6,
(21,17) --> 34,
(21,18) --> 59,
(21,19) --> 56,
(21,20) --> 53,
(21,21) --> 0,
(21,22) --> 20,
(21,23) --> 42,
(21,24) --> 47,
(21,25) --> 46,
(21,26) --> 41,
(21,27) --> 63,
(21,28) --> 40,
(21,29) --> 35,
(21,30) --> 35,
(21,31) --> 44,
(21,32) --> 36,
(21,33) --> 41,
(21,34) --> 21,
(21,35) --> 53,
(21,36) --> 24,
(22,0) --> 26,
(22,1) --> 22,
(22,2) --> 46,
(22,3) --> 36,
(22,4) --> 29,
(22,5) --> 23,
(22,6) --> 47,
(22,7) --> 16,
(22,8) --> 69,
(22,9) --> 64,
(22,10) --> 29,
(22,11) --> 76,
(22,12) --> 27,
(22,13) --> 9,
(22,14) --> 41,
(22,15) --> 29,
(22,16) --> 14,
(22,17) --> 38,
(22,18) --> 79,
(22,19) --> 52,
(22,20) --> 54,
(22,21) --> 20,
(22,22) --> 0,
(22,23) --> 47,
(22,24) --> 57,
(22,25) --> 65,
(22,26) --> 61,
(22,27) --> 74,
(22,28) --> 59,
(22,29) --> 50,
(22,30) --> 55,
(22,31) --> 62,
(22,32) --> 55,
(22,33) --> 23,
(22,34) --> 40,
(22,35) --> 73,
(22,36) --> 42,
(23,0) --> 44,
(23,1) --> 27,
(23,2) --> 29,
(23,3) --> 31,
(23,4) --> 72,
(23,5) --> 60,
(23,6) --> 61,
(23,7) --> 57,
(23,8) --> 29,
(23,9) --> 19,
(23,10) --> 37,
(23,11) --> 29,
(23,12) --> 23,
(23,13) --> 48,
(23,14) --> 7,
(23,15) --> 45,
(23,16) --> 44,
(23,17) --> 9,
(23,18) --> 73,
(23,19) --> 24,
(23,20) --> 14,
(23,21) --> 42,
(23,22) --> 47,
(23,23) --> 0,
(23,24) --> 15,
(23,25) --> 47,
(23,26) --> 63,
(23,27) --> 31,
(23,28) --> 67,
(23,29) --> 71,
(23,30) --> 53,
(23,31) --> 70,
(23,32) --> 66,
(23,33) --> 69,
(23,34) --> 53,
(23,35) --> 65,
(23,36) --> 57,
(24,0) --> 47,
(24,1) --> 35,
(24,2) --> 44,
(24,3) --> 31,
(24,4) --> 79,
(24,5) --> 73,
(24,6) --> 76,
(24,7) --> 64,
(24,8) --> 14,
(24,9) --> 8,
(24,10) --> 52,
(24,11) --> 24,
(24,12) --> 37,
(24,13) --> 60,
(24,14) --> 22,
(24,15) --> 48,
(24,16) --> 51,
(24,17) --> 22,
(24,18) --> 63,
(24,19) --> 38,
(24,20) --> 26,
(24,21) --> 47,
(24,22) --> 57,
(24,23) --> 15,
(24,24) --> 0,
(24,25) --> 36,
(24,26) --> 56,
(24,27) --> 17,
(24,28) --> 62,
(24,29) --> 70,
(24,30) --> 48,
(24,31) --> 65,
(24,32) --> 63,
(24,33) --> 80,
(24,34) --> 52,
(24,35) --> 55,
(24,36) --> 56,
(25,0) --> 42,
(25,1) --> 47,
(25,2) --> 75,
(25,3) --> 29,
(25,4) --> 74,
(25,5) --> 87,
(25,6) --> 100,
(25,7) --> 63,
(25,8) --> 31,
(25,9) --> 41,
(25,10) --> 75,
(25,11) --> 56,
(25,12) --> 59,
(25,13) --> 72,
(25,14) --> 51,
(25,15) --> 40,
(25,16) --> 53,
(25,17) --> 48,
(25,18) --> 27,
(25,19) --> 71,
(25,20) --> 61,
(25,21) --> 46,
(25,22) --> 65,
(25,23) --> 47,
(25,24) --> 36,
(25,25) --> 0,
(25,26) --> 26,
(25,27) --> 39,
(25,28) --> 34,
(25,29) --> 48,
(25,30) --> 20,
(25,31) --> 35,
(25,32) --> 37,
(25,33) --> 87,
(25,34) --> 36,
(25,35) --> 19,
(25,36) --> 38,
(26,0) --> 35,
(26,1) --> 51,
(26,2) --> 86,
(26,3) --> 33,
(26,4) --> 59,
(26,5) --> 84,
(26,6) --> 104,
(26,7) --> 52,
(26,8) --> 55,
(26,9) --> 63,
(26,10) --> 80,
(26,11) --> 79,
(26,12) --> 66,
(26,13) --> 69,
(26,14) --> 64,
(26,15) --> 32,
(26,16) --> 47,
(26,17) --> 59,
(26,18) --> 19,
(26,19) --> 85,
(26,20) --> 77,
(26,21) --> 41,
(26,22) --> 61,
(26,23) --> 63,
(26,24) --> 56,
(26,25) --> 26,
(26,26) --> 0,
(26,27) --> 63,
(26,28) --> 9,
(26,29) --> 25,
(26,30) --> 9,
(26,31) --> 9,
(26,32) --> 13,
(26,33) --> 79,
(26,34) --> 21,
(26,35) --> 16,
(26,36) --> 21,
(27,0) --> 62,
(27,1) --> 52,
(27,2) --> 58,
(27,3) --> 45,
(27,4) --> 95,
(27,5) --> 90,
(27,6) --> 91,
(27,7) --> 81,
(27,8) --> 8,
(27,9) --> 12,
(27,10) --> 68,
(27,11) --> 19,
(27,12) --> 54,
(27,13) --> 77,
(27,14) --> 38,
(27,15) --> 62,
(27,16) --> 67,
(27,17) --> 39,
(27,18) --> 65,
(27,19) --> 51,
(27,20) --> 38,
(27,21) --> 63,
(27,22) --> 74,
(27,23) --> 31,
(27,24) --> 17,
(27,25) --> 39,
(27,26) --> 63,
(27,27) --> 0,
(27,28) --> 71,
(27,29) --> 81,
(27,30) --> 55,
(27,31) --> 73,
(27,32) --> 72,
(27,33) --> 97,
(27,34) --> 65,
(27,35) --> 57,
(27,36) --> 68,
(28,0) --> 34,
(28,1) --> 52,
(28,2) --> 88,
(28,3) --> 36,
(28,4) --> 53,
(28,5) --> 81,
(28,6) --> 103,
(28,7) --> 49,
(28,8) --> 63,
(28,9) --> 69,
(28,10) --> 81,
(28,11) --> 85,
(28,12) --> 67,
(28,13) --> 67,
(28,14) --> 67,
(28,15) --> 31,
(28,16) --> 45,
(28,17) --> 63,
(28,18) --> 25,
(28,19) --> 88,
(28,20) --> 81,
(28,21) --> 40,
(28,22) --> 59,
(28,23) --> 67,
(28,24) --> 62,
(28,25) --> 34,
(28,26) --> 9,
(28,27) --> 71,
(28,28) --> 0,
(28,29) --> 17,
(28,30) --> 15,
(28,31) --> 4,
(28,32) --> 5,
(28,33) --> 75,
(28,34) --> 19,
(28,35) --> 24,
(28,36) --> 17,
(29,0) --> 29,
(29,1) --> 50,
(29,2) --> 87,
(29,3) --> 40,
(29,4) --> 38,
(29,5) --> 71,
(29,6) --> 97,
(29,7) --> 37,
(29,8) --> 73,
(29,9) --> 77,
(29,10) --> 76,
(29,11) --> 93,
(29,12) --> 65,
(29,13) --> 59,
(29,14) --> 70,
(29,15) --> 27,
(29,16) --> 38,
(29,17) --> 64,
(29,18) --> 42,
(29,19) --> 89,
(29,20) --> 84,
(29,21) --> 35,
(29,22) --> 50,
(29,23) --> 71,
(29,24) --> 70,
(29,25) --> 48,
(29,26) --> 25,
(29,27) --> 81,
(29,28) --> 17,
(29,29) --> 0,
(29,30) --> 28,
(29,31) --> 19,
(29,32) --> 12,
(29,33) --> 62,
(29,34) --> 18,
(29,35) --> 41,
(29,36) --> 14,
(30,0) --> 29,
(30,1) --> 43,
(30,2) --> 77,
(30,3) --> 25,
(30,4) --> 57,
(30,5) --> 78,
(30,6) --> 96,
(30,7) --> 49,
(30,8) --> 47,
(30,9) --> 54,
(30,10) --> 72,
(30,11) --> 70,
(30,12) --> 57,
(30,13) --> 63,
(30,14) --> 55,
(30,15) --> 26,
(30,16) --> 41,
(30,17) --> 50,
(30,18) --> 24,
(30,19) --> 76,
(30,20) --> 68,
(30,21) --> 35,
(30,22) --> 55,
(30,23) --> 53,
(30,24) --> 48,
(30,25) --> 20,
(30,26) --> 9,
(30,27) --> 55,
(30,28) --> 15,
(30,29) --> 28,
(30,30) --> 0,
(30,31) --> 17,
(30,32) --> 17,
(30,33) --> 74,
(30,34) --> 18,
(30,35) --> 18,
(30,36) --> 19,
(31,0) --> 37,
(31,1) --> 56,
(31,2) --> 92,
(31,3) --> 40,
(31,4) --> 56,
(31,5) --> 85,
(31,6) --> 107,
(31,7) --> 52,
(31,8) --> 65,
(31,9) --> 72,
(31,10) --> 84,
(31,11) --> 88,
(31,12) --> 71,
(31,13) --> 71,
(31,14) --> 71,
(31,15) --> 34,
(31,16) --> 49,
(31,17) --> 66,
(31,18) --> 23,
(31,19) --> 92,
(31,20) --> 84,
(31,21) --> 44,
(31,22) --> 62,
(31,23) --> 70,
(31,24) --> 65,
(31,25) --> 35,
(31,26) --> 9,
(31,27) --> 73,
(31,28) --> 4,
(31,29) --> 19,
(31,30) --> 17,
(31,31) --> 0,
(31,32) --> 8,
(31,33) --> 78,
(31,34) --> 23,
(31,35) --> 23,
(31,36) --> 21,
(32,0) --> 30,
(32,1) --> 49,
(32,2) --> 86,
(32,3) --> 35,
(32,4) --> 48,
(32,5) --> 77,
(32,6) --> 100,
(32,7) --> 44,
(32,8) --> 64,
(32,9) --> 70,
(32,10) --> 77,
(32,11) --> 86,
(32,12) --> 65,
(32,13) --> 63,
(32,14) --> 66,
(32,15) --> 27,
(32,16) --> 41,
(32,17) --> 61,
(32,18) --> 30,
(32,19) --> 87,
(32,20) --> 80,
(32,21) --> 36,
(32,22) --> 55,
(32,23) --> 66,
(32,24) --> 63,
(32,25) --> 37,
(32,26) --> 13,
(32,27) --> 72,
(32,28) --> 5,
(32,29) --> 12,
(32,30) --> 17,
(32,31) --> 8,
(32,32) --> 0,
(32,33) --> 70,
(32,34) --> 16,
(32,35) --> 29,
(32,36) --> 13,
(33,0) --> 46,
(33,1) --> 45,
(33,2) --> 61,
(33,3) --> 59,
(33,4) --> 27,
(33,5) --> 16,
(33,6) --> 46,
(33,7) --> 26,
(33,8) --> 92,
(33,9) --> 87,
(33,10) --> 41,
(33,11) --> 98,
(33,12) --> 47,
(33,13) --> 21,
(33,14) --> 63,
(33,15) --> 48,
(33,16) --> 34,
(33,17) --> 60,
(33,18) --> 98,
(33,19) --> 69,
(33,20) --> 73,
(33,21) --> 41,
(33,22) --> 23,
(33,23) --> 69,
(33,24) --> 80,
(33,25) --> 87,
(33,26) --> 79,
(33,27) --> 97,
(33,28) --> 75,
(33,29) --> 62,
(33,30) --> 74,
(33,31) --> 78,
(33,32) --> 70,
(33,33) --> 0,
(33,34) --> 57,
(33,35) --> 93,
(33,36) --> 58,
(34,0) --> 14,
(34,1) --> 34,
(34,2) --> 71,
(34,3) --> 22,
(34,4) --> 39,
(34,5) --> 62,
(34,6) --> 84,
(34,7) --> 31,
(34,8) --> 57,
(34,9) --> 60,
(34,10) --> 62,
(34,11) --> 76,
(34,12) --> 49,
(34,13) --> 48,
(34,14) --> 52,
(34,15) --> 12,
(34,16) --> 26,
(34,17) --> 47,
(34,18) --> 40,
(34,19) --> 72,
(34,20) --> 66,
(34,21) --> 21,
(34,22) --> 40,
(34,23) --> 53,
(34,24) --> 52,
(34,25) --> 36,
(34,26) --> 21,
(34,27) --> 65,
(34,28) --> 19,
(34,29) --> 18,
(34,30) --> 18,
(34,31) --> 23,
(34,32) --> 16,
(34,33) --> 57,
(34,34) --> 0,
(34,35) --> 36,
(34,36) --> 4,
(35,0) --> 47,
(35,1) --> 59,
(35,2) --> 91,
(35,3) --> 40,
(35,4) --> 74,
(35,5) --> 96,
(35,6) --> 113,
(35,7) --> 67,
(35,8) --> 50,
(35,9) --> 60,
(35,10) --> 88,
(35,11) --> 75,
(35,12) --> 73,
(35,13) --> 81,
(35,14) --> 68,
(35,15) --> 45,
(35,16) --> 59,
(35,17) --> 64,
(35,18) --> 8,
(35,19) --> 89,
(35,20) --> 79,
(35,21) --> 53,
(35,22) --> 73,
(35,23) --> 65,
(35,24) --> 55,
(35,25) --> 19,
(35,26) --> 16,
(35,27) --> 57,
(35,28) --> 24,
(35,29) --> 41,
(35,30) --> 18,
(35,31) --> 23,
(35,32) --> 29,
(35,33) --> 93,
(35,34) --> 36,
(35,35) --> 0,
(35,36) --> 36,
(36,0) --> 17,
(36,1) --> 38,
(36,2) --> 75,
(36,3) --> 26,
(36,4) --> 38,
(36,5) --> 64,
(36,6) --> 87,
(36,7) --> 32,
(36,8) --> 60,
(36,9) --> 64,
(36,10) --> 65,
(36,11) --> 80,
(36,12) --> 53,
(36,13) --> 50,
(36,14) --> 56,
(36,15) --> 15,
(36,16) --> 29,
(36,17) --> 51,
(36,18) --> 40,
(36,19) --> 76,
(36,20) --> 71,
(36,21) --> 24,
(36,22) --> 42,
(36,23) --> 57,
(36,24) --> 56,
(36,25) --> 38,
(36,26) --> 21,
(36,27) --> 68,
(36,28) --> 17,
(36,29) --> 14,
(36,30) --> 19,
(36,31) --> 21,
(36,32) --> 13,
(36,33) --> 58,
(36,34) --> 4,
(36,35) --> 36,
(36,36) --> 0)
letting orderWeights be function (
1 --> 16
,
2 --> 18
,
3 --> 1
,
4 --> 13
,
5 --> 8
,
6 --> 23
,
7 --> 7
,
8 --> 27
,
9 --> 1
,
10 --> 3
,
11 --> 6
,
12 --> 24
,
13 --> 19
,
14 --> 2
,
15 --> 5
,
16 --> 16
,
17 --> 7
,
18 --> 4
,
19 --> 22
,
20 --> 7
,
21 --> 23
,
22 --> 16
,
23 --> 2
,
24 --> 2
,
25 --> 9
,
26 --> 2
,
27 --> 12
,
28 --> 1
,
29 --> 9
,
30 --> 23
,
31 --> 6
,
32 --> 19
,
33 --> 7
,
34 --> 7
,
35 --> 20
,
36 --> 20
)
letting vehicleCapacity be 100
